pair_style snap     
pair_coeff      * * NbMoTaW_Li_2020.snapcoeff NbMoTaW_Li_2020.snapparam W
